20 47 
1 2 1
3 4 1
1 5 1
1 6 1
2 6 1
2 7 1
3 7 1
4 7 1
5 7 1
4 8 1
6 8 1
7 8 1
8 9 1
2 10 1
6 10 1
4 11 1
6 11 1
8 11 1
3 12 1
5 12 1
6 12 1
10 12 1
1 13 1
9 13 1
10 13 1
6 14 1
10 14 1
4 15 1
12 15 1
7 16 1
9 16 1
1 17 1
8 17 1
16 17 1
4 18 1
5 18 1
11 18 1
17 18 1
3 19 1
9 19 1
13 19 1
2 20 1
4 20 1
5 20 1
7 20 1
10 20 1
16 20 1
